TCS_Benchmarks/redos_fix/snort3_output_distinct_744_743_0_0.smt2
(set-logic QF_S)
(declare-const x String)
(assert (str.in.re x (re.inter  (re.++ (re.*  (re.union (re.union (re.range "\u{00}" "\u{09}") (re.range "\u{0b}" "\u{0c}") (re.range "\u{0e}" "\u{84}") (re.range "\u{86}" "\u{ff}")) (re.union  (str.to_re "\u{0A}")  (str.to_re "\u{0D}"))) )  (re.++ (re.comp  (str.to_re "\u{0A}")) (re.++ (re.comp  (str.to_re "\u{0A}")) (re.++ (re.comp  (str.to_re "\u{0A}")) (re.++ (re.comp  (str.to_re "\u{0A}")) (re.++ (re.comp  (str.to_re "\u{0A}")) (re.++ (re.comp  (str.to_re "\u{0A}")) (re.++ (re.comp  (str.to_re "\u{0A}")) (re.++ (re.comp  (str.to_re "\u{0A}")) (re.++ (re.comp  (str.to_re "\u{0A}")) (re.++ (re.comp  (str.to_re "\u{0A}")) (re.++ (re.comp  (str.to_re "\u{0A}")) (re.++ (re.comp  (str.to_re "\u{0A}")) (re.++ (re.comp  (str.to_re "\u{0A}")) (re.++ (re.comp  (str.to_re "\u{0A}")) (re.++ (re.comp  (str.to_re "\u{0A}")) (re.++ (re.comp  (str.to_re "\u{0A}")) (re.++ (re.comp  (str.to_re "\u{0A}")) (re.++ (re.comp  (str.to_re "\u{0A}")) (re.++ (re.comp  (str.to_re "\u{0A}")) (re.++ (re.comp  (str.to_re "\u{0A}")) (re.++ (re.comp  (str.to_re "\u{0A}")) (re.++ (re.comp  (str.to_re "\u{0A}")) (re.++ (re.comp  (str.to_re "\u{0A}")) (re.++ (re.comp  (str.to_re "\u{0A}")) (re.++ (re.comp  (str.to_re "\u{0A}")) (re.++ (re.comp  (str.to_re "\u{0A}")) (re.++ (re.comp  (str.to_re "\u{0A}")) (re.++ (re.comp  (str.to_re "\u{0A}")) (re.++ (re.comp  (str.to_re "\u{0A}")) (re.++ (re.comp  (str.to_re "\u{0A}")) (re.++ (re.comp  (str.to_re "\u{0A}")) (re.++ (re.comp  (str.to_re "\u{0A}")) (re.++ (re.comp  (str.to_re "\u{0A}")) (re.++ (re.comp  (str.to_re "\u{0A}")) (re.++ (re.comp  (str.to_re "\u{0A}")) (re.++ (re.comp  (str.to_re "\u{0A}")) (re.++ (re.comp  (str.to_re "\u{0A}")) (re.++ (re.comp  (str.to_re "\u{0A}")) (re.++ (re.comp  (str.to_re "\u{0A}")) (re.++ (re.comp  (str.to_re "\u{0A}")) (re.++ (re.comp  (str.to_re "\u{0A}")) (re.++ (re.comp  (str.to_re "\u{0A}")) (re.++ (re.comp  (str.to_re "\u{0A}")) (re.++ (re.comp  (str.to_re "\u{0A}")) (re.++ (re.comp  (str.to_re "\u{0A}")) (re.++ (re.comp  (str.to_re "\u{0A}")) (re.++ (re.comp  (str.to_re "\u{0A}")) (re.++ (re.comp  (str.to_re "\u{0A}")) (re.++ (re.comp  (str.to_re "\u{0A}")) (re.++ (re.comp  (str.to_re "\u{0A}")) (re.++ (re.comp  (str.to_re "\u{0A}")) (re.++ (re.comp  (str.to_re "\u{0A}")) (re.++ (re.comp  (str.to_re "\u{0A}")) (re.++ (re.comp  (str.to_re "\u{0A}")) (re.++ (re.comp  (str.to_re "\u{0A}")) (re.++ (re.comp  (str.to_re "\u{0A}")) (re.++ (re.comp  (str.to_re "\u{0A}")) (re.++ (re.comp  (str.to_re "\u{0A}")) (re.++ (re.comp  (str.to_re "\u{0A}")) (re.++ (re.comp  (str.to_re "\u{0A}")) (re.++ (re.comp  (str.to_re "\u{0A}")) (re.++ (re.comp  (str.to_re "\u{0A}")) (re.++ (re.comp  (str.to_re "\u{0A}")) (re.++ (re.comp  (str.to_re "\u{0A}")) (re.++ (re.comp  (str.to_re "\u{0A}")) (re.++ (re.comp  (str.to_re "\u{0A}")) (re.++ (re.comp  (str.to_re "\u{0A}")) (re.++ (re.comp  (str.to_re "\u{0A}")) (re.++ (re.comp  (str.to_re "\u{0A}")) (re.++ (re.comp  (str.to_re "\u{0A}")) (re.++ (re.comp  (str.to_re "\u{0A}")) (re.++ (re.comp  (str.to_re "\u{0A}")) (re.++ (re.comp  (str.to_re "\u{0A}")) (re.++ (re.comp  (str.to_re "\u{0A}")) (re.++ (re.comp  (str.to_re "\u{0A}")) (re.++ (re.comp  (str.to_re "\u{0A}")) (re.++ (re.comp  (str.to_re "\u{0A}")) (re.++ (re.comp  (str.to_re "\u{0A}")) (re.++ (re.comp  (str.to_re "\u{0A}")) (re.++ (re.comp  (str.to_re "\u{0A}")) (re.++ (re.comp  (str.to_re "\u{0A}")) (re.++ (re.comp  (str.to_re "\u{0A}")) (re.++ (re.comp  (str.to_re "\u{0A}")) (re.++ (re.comp  (str.to_re "\u{0A}")) (re.++ (re.comp  (str.to_re "\u{0A}")) (re.++ (re.comp  (str.to_re "\u{0A}")) (re.++ (re.comp  (str.to_re "\u{0A}")) (re.++ (re.comp  (str.to_re "\u{0A}")) (re.++ (re.comp  (str.to_re "\u{0A}")) (re.++ (re.comp  (str.to_re "\u{0A}")) (re.++ (re.comp  (str.to_re "\u{0A}")) (re.++ (re.comp  (str.to_re "\u{0A}")) (re.++ (re.comp  (str.to_re "\u{0A}")) (re.++ (re.comp  (str.to_re "\u{0A}")) (re.++ (re.comp  (str.to_re "\u{0A}")) (re.++ (re.comp  (str.to_re "\u{0A}")) (re.++ (re.comp  (str.to_re "\u{0A}")) (re.++ (re.comp  (str.to_re "\u{0A}")) (re.++ (re.comp  (str.to_re "\u{0A}")) (re.++ (re.comp  (str.to_re "\u{0A}")) (re.++ (re.comp  (str.to_re "\u{0A}")) (re.++ (re.comp  (str.to_re "\u{0A}")) (re.++ (re.comp  (str.to_re "\u{0A}")) (re.++ (re.comp  (str.to_re "\u{0A}")) (re.++ (re.comp  (str.to_re "\u{0A}")) (re.++ (re.comp  (str.to_re "\u{0A}")) (re.++ (re.comp  (str.to_re "\u{0A}")) (re.++ (re.comp  (str.to_re "\u{0A}")) (re.++ (re.comp  (str.to_re "\u{0A}")) (re.++ (re.comp  (str.to_re "\u{0A}")) (re.++ (re.comp  (str.to_re "\u{0A}")) (re.++ (re.comp  (str.to_re "\u{0A}")) (re.++ (re.comp  (str.to_re "\u{0A}")) (re.++ (re.comp  (str.to_re "\u{0A}")) (re.++ (re.comp  (str.to_re "\u{0A}")) (re.++ (re.comp  (str.to_re "\u{0A}")) (re.++ (re.comp  (str.to_re "\u{0A}")) (re.++ (re.comp  (str.to_re "\u{0A}")) (re.++ (re.comp  (str.to_re "\u{0A}")) (re.++ (re.comp  (str.to_re "\u{0A}")) (re.++ (re.comp  (str.to_re "\u{0A}")) (re.++ (re.comp  (str.to_re "\u{0A}")) (re.++ (re.comp  (str.to_re "\u{0A}")) (re.++ (re.comp  (str.to_re "\u{0A}")) (re.++ (re.comp  (str.to_re "\u{0A}")) (re.++ (re.comp  (str.to_re "\u{0A}")) (re.++ (re.comp  (str.to_re "\u{0A}")) (re.++ (re.comp  (str.to_re "\u{0A}")) (re.++ (re.comp  (str.to_re "\u{0A}")) (re.++ (re.comp  (str.to_re "\u{0A}")) (re.++ (re.comp  (str.to_re "\u{0A}")) (re.++ (re.comp  (str.to_re "\u{0A}")) (re.++ (re.comp  (str.to_re "\u{0A}")) (re.++ (re.comp  (str.to_re "\u{0A}")) (re.++ (re.comp  (str.to_re "\u{0A}")) (re.++ (re.comp  (str.to_re "\u{0A}")) (re.++ (re.comp  (str.to_re "\u{0A}")) (re.++ (re.comp  (str.to_re "\u{0A}")) (re.++ (re.comp  (str.to_re "\u{0A}")) (re.++ (re.comp  (str.to_re "\u{0A}")) (re.++ (re.comp  (str.to_re "\u{0A}")) (re.++ (re.comp  (str.to_re "\u{0A}")) (re.++ (re.comp  (str.to_re "\u{0A}")) (re.++ (re.comp  (str.to_re "\u{0A}")) (re.++ (re.comp  (str.to_re "\u{0A}")) (re.++ (re.comp  (str.to_re "\u{0A}")) (re.++ (re.comp  (str.to_re "\u{0A}")) (re.++ (re.comp  (str.to_re "\u{0A}")) (re.++ (re.comp  (str.to_re "\u{0A}")) (re.++ (re.comp  (str.to_re "\u{0A}")) (re.++ (re.comp  (str.to_re "\u{0A}")) (re.++ (re.comp  (str.to_re "\u{0A}")) (re.++ (re.comp  (str.to_re "\u{0A}")) (re.++ (re.comp  (str.to_re "\u{0A}")) (re.++ (re.comp  (str.to_re "\u{0A}")) (re.++ (re.comp  (str.to_re "\u{0A}")) (re.++ (re.comp  (str.to_re "\u{0A}")) (re.++ (re.comp  (str.to_re "\u{0A}")) (re.++ (re.comp  (str.to_re "\u{0A}")) (re.++ (re.comp  (str.to_re "\u{0A}")) (re.++ (re.comp  (str.to_re "\u{0A}")) (re.++ (re.comp  (str.to_re "\u{0A}")) (re.++ (re.comp  (str.to_re "\u{0A}")) (re.++ (re.comp  (str.to_re "\u{0A}")) (re.++ (re.comp  (str.to_re "\u{0A}")) (re.++ (re.comp  (str.to_re "\u{0A}")) (re.++ (re.comp  (str.to_re "\u{0A}")) (re.++ (re.comp  (str.to_re "\u{0A}")) (re.++ (re.comp  (str.to_re "\u{0A}")) (re.++ (re.comp  (str.to_re "\u{0A}")) (re.++ (re.comp  (str.to_re "\u{0A}")) (re.++ (re.comp  (str.to_re "\u{0A}")) (re.++ (re.comp  (str.to_re "\u{0A}")) (re.++ (re.comp  (str.to_re "\u{0A}")) (re.++ (re.comp  (str.to_re "\u{0A}")) (re.++ (re.comp  (str.to_re "\u{0A}")) (re.++ (re.comp  (str.to_re "\u{0A}")) (re.++ (re.comp  (str.to_re "\u{0A}")) (re.++ (re.comp  (str.to_re "\u{0A}")) (re.++ (re.comp  (str.to_re "\u{0A}")) (re.++ (re.comp  (str.to_re "\u{0A}")) (re.++ (re.comp  (str.to_re "\u{0A}")) (re.++ (re.comp  (str.to_re "\u{0A}")) (re.++ (re.comp  (str.to_re "\u{0A}")) (re.++ (re.comp  (str.to_re "\u{0A}")) (re.++ (re.comp  (str.to_re "\u{0A}")) (re.++ (re.comp  (str.to_re "\u{0A}")) (re.++ (re.comp  (str.to_re "\u{0A}")) (re.++ (re.comp  (str.to_re "\u{0A}")) (re.++ (re.comp  (str.to_re "\u{0A}")) (re.++ (re.comp  (str.to_re "\u{0A}")) (re.++ (re.comp  (str.to_re "\u{0A}")) (re.++ (re.comp  (str.to_re "\u{0A}")) (re.++ (re.comp  (str.to_re "\u{0A}")) (re.++ (re.comp  (str.to_re "\u{0A}")) (re.++ (re.comp  (str.to_re "\u{0A}")) (re.++ (re.comp  (str.to_re "\u{0A}")) (re.++ (re.comp  (str.to_re "\u{0A}")) (re.++ (re.comp  (str.to_re "\u{0A}")) (re.++ (re.comp  (str.to_re "\u{0A}")) (re.++ (re.comp  (str.to_re "\u{0A}")) (re.++ (re.comp  (str.to_re "\u{0A}")) (re.++ (re.comp  (str.to_re "\u{0A}")) (re.++ (re.comp  (str.to_re "\u{0A}")) (re.++ (re.comp  (str.to_re "\u{0A}")) (re.++ (re.comp  (str.to_re "\u{0A}")) (re.++ (re.comp  (str.to_re "\u{0A}")) (re.++ (re.comp  (str.to_re "\u{0A}")) (re.++ (re.comp  (str.to_re "\u{0A}")) (re.++ (re.comp  (str.to_re "\u{0A}")) (re.++ (re.comp  (str.to_re "\u{0A}")) (re.++ (re.comp  (str.to_re "\u{0A}")) (re.++ (re.comp  (str.to_re "\u{0A}")) (re.++ (re.comp  (str.to_re "\u{0A}")) (re.++ (re.comp  (str.to_re "\u{0A}")) (re.++ (re.comp  (str.to_re "\u{0A}")) (re.++ (re.comp  (str.to_re "\u{0A}")) (re.++ (re.comp  (str.to_re "\u{0A}")) (re.++ (re.comp  (str.to_re "\u{0A}")) (re.++ (re.comp  (str.to_re "\u{0A}")) (re.++ (re.comp  (str.to_re "\u{0A}")) (re.++ (re.comp  (str.to_re "\u{0A}")) (re.++ (re.comp  (str.to_re "\u{0A}")) (re.++ (re.comp  (str.to_re "\u{0A}")) (re.++ (re.comp  (str.to_re "\u{0A}")) (re.++ (re.comp  (str.to_re "\u{0A}")) (re.++ (re.comp  (str.to_re "\u{0A}")) (re.++ (re.comp  (str.to_re "\u{0A}")) (re.++ (re.comp  (str.to_re "\u{0A}")) (re.++ (re.comp  (str.to_re "\u{0A}")) (re.++ (re.comp  (str.to_re "\u{0A}")) (re.++ (re.comp  (str.to_re "\u{0A}")) (re.++ (re.comp  (str.to_re "\u{0A}")) (re.++ (re.comp  (str.to_re "\u{0A}")) (re.++ (re.comp  (str.to_re "\u{0A}")) (re.++ (re.comp  (str.to_re "\u{0A}")) (re.++ (re.comp  (str.to_re "\u{0A}")) (re.++ (re.comp  (str.to_re "\u{0A}")) (re.++ (re.comp  (str.to_re "\u{0A}")) (re.++ (re.comp  (str.to_re "\u{0A}")) (re.++ (re.comp  (str.to_re "\u{0A}")) (re.++ (re.comp  (str.to_re "\u{0A}")) (re.++ (re.comp  (str.to_re "\u{0A}")) (re.++ (re.comp  (str.to_re "\u{0A}")) (re.++ (re.comp  (str.to_re "\u{0A}")) (re.++ (re.comp  (str.to_re "\u{0A}")) (re.++ (re.comp  (str.to_re "\u{0A}")) (re.++ (re.comp  (str.to_re "\u{0A}")) (re.++ (re.comp  (str.to_re "\u{0A}")) (re.++ (re.comp  (str.to_re "\u{0A}")) (re.++ (re.comp  (str.to_re "\u{0A}")) (re.++ (re.comp  (str.to_re "\u{0A}")) (re.++ (re.comp  (str.to_re "\u{0A}")) (re.++ (re.comp  (str.to_re "\u{0A}")) (re.++ (re.comp  (str.to_re "\u{0A}")) (re.comp  (str.to_re "\u{0A}"))))))))))))))))))))))))))))))))))))))))))))))))))))))))))))))))))))))))))))))))))))))))))))))))))))))))))))))))))))))))))))))))))))))))))))))))))))))))))))))))))))))))))))))))))))))))))))))))))))))))))))))))))))))))))))))))))))))))))))))))))))))))))))))))))  (re.++ (re.*  (re.union (re.union (re.range "\u{00}" "\u{09}") (re.range "\u{0b}" "\u{0c}") (re.range "\u{0e}" "\u{84}") (re.range "\u{86}" "\u{ff}")) (re.union  (str.to_re "\u{0A}")  (str.to_re "\u{0D}"))) ) (re.++  (str.to.re "\u{3f}")  (re.++ (re.comp  (str.to_re "\u{0A}")) (re.++ (re.comp  (str.to_re "\u{0A}")) (re.++ (re.comp  (str.to_re "\u{0A}")) (re.++ (re.comp  (str.to_re "\u{0A}")) (re.++ (re.comp  (str.to_re "\u{0A}")) (re.++ (re.comp  (str.to_re "\u{0A}")) (re.++ (re.comp  (str.to_re "\u{0A}")) (re.++ (re.comp  (str.to_re "\u{0A}")) (re.++ (re.comp  (str.to_re "\u{0A}")) (re.++ (re.comp  (str.to_re "\u{0A}")) (re.++ (re.comp  (str.to_re "\u{0A}")) (re.++ (re.comp  (str.to_re "\u{0A}")) (re.++ (re.comp  (str.to_re "\u{0A}")) (re.++ (re.comp  (str.to_re "\u{0A}")) (re.++ (re.comp  (str.to_re "\u{0A}")) (re.++ (re.comp  (str.to_re "\u{0A}")) (re.++ (re.comp  (str.to_re "\u{0A}")) (re.++ (re.comp  (str.to_re "\u{0A}")) (re.++ (re.comp  (str.to_re "\u{0A}")) (re.++ (re.comp  (str.to_re "\u{0A}")) (re.++ (re.comp  (str.to_re "\u{0A}")) (re.++ (re.comp  (str.to_re "\u{0A}")) (re.++ (re.comp  (str.to_re "\u{0A}")) (re.++ (re.comp  (str.to_re "\u{0A}")) (re.++ (re.comp  (str.to_re "\u{0A}")) (re.++ (re.comp  (str.to_re "\u{0A}")) (re.++ (re.comp  (str.to_re "\u{0A}")) (re.++ (re.comp  (str.to_re "\u{0A}")) (re.++ (re.comp  (str.to_re "\u{0A}")) (re.++ (re.comp  (str.to_re "\u{0A}")) (re.++ (re.comp  (str.to_re "\u{0A}")) (re.++ (re.comp  (str.to_re "\u{0A}")) (re.++ (re.comp  (str.to_re "\u{0A}")) (re.++ (re.comp  (str.to_re "\u{0A}")) (re.++ (re.comp  (str.to_re "\u{0A}")) (re.++ (re.comp  (str.to_re "\u{0A}")) (re.++ (re.comp  (str.to_re "\u{0A}")) (re.++ (re.comp  (str.to_re "\u{0A}")) (re.++ (re.comp  (str.to_re "\u{0A}")) (re.++ (re.comp  (str.to_re "\u{0A}")) (re.++ (re.comp  (str.to_re "\u{0A}")) (re.++ (re.comp  (str.to_re "\u{0A}")) (re.++ (re.comp  (str.to_re "\u{0A}")) (re.++ (re.comp  (str.to_re "\u{0A}")) (re.++ (re.comp  (str.to_re "\u{0A}")) (re.++ (re.comp  (str.to_re "\u{0A}")) (re.++ (re.comp  (str.to_re "\u{0A}")) (re.++ (re.comp  (str.to_re "\u{0A}")) (re.++ (re.comp  (str.to_re "\u{0A}")) (re.++ (re.comp  (str.to_re "\u{0A}")) (re.++ (re.comp  (str.to_re "\u{0A}")) (re.++ (re.comp  (str.to_re "\u{0A}")) (re.++ (re.comp  (str.to_re "\u{0A}")) (re.++ (re.comp  (str.to_re "\u{0A}")) (re.++ (re.comp  (str.to_re "\u{0A}")) (re.++ (re.comp  (str.to_re "\u{0A}")) (re.++ (re.comp  (str.to_re "\u{0A}")) (re.++ (re.comp  (str.to_re "\u{0A}")) (re.++ (re.comp  (str.to_re "\u{0A}")) (re.++ (re.comp  (str.to_re "\u{0A}")) (re.++ (re.comp  (str.to_re "\u{0A}")) (re.++ (re.comp  (str.to_re "\u{0A}")) (re.++ (re.comp  (str.to_re "\u{0A}")) (re.++ (re.comp  (str.to_re "\u{0A}")) (re.++ (re.comp  (str.to_re "\u{0A}")) (re.++ (re.comp  (str.to_re "\u{0A}")) (re.++ (re.comp  (str.to_re "\u{0A}")) (re.++ (re.comp  (str.to_re "\u{0A}")) (re.++ (re.comp  (str.to_re "\u{0A}")) (re.++ (re.comp  (str.to_re "\u{0A}")) (re.++ (re.comp  (str.to_re "\u{0A}")) (re.++ (re.comp  (str.to_re "\u{0A}")) (re.++ (re.comp  (str.to_re "\u{0A}")) (re.++ (re.comp  (str.to_re "\u{0A}")) (re.++ (re.comp  (str.to_re "\u{0A}")) (re.++ (re.comp  (str.to_re "\u{0A}")) (re.++ (re.comp  (str.to_re "\u{0A}")) (re.++ (re.comp  (str.to_re "\u{0A}")) (re.++ (re.comp  (str.to_re "\u{0A}")) (re.++ (re.comp  (str.to_re "\u{0A}")) (re.++ (re.comp  (str.to_re "\u{0A}")) (re.++ (re.comp  (str.to_re "\u{0A}")) (re.++ (re.comp  (str.to_re "\u{0A}")) (re.++ (re.comp  (str.to_re "\u{0A}")) (re.++ (re.comp  (str.to_re "\u{0A}")) (re.++ (re.comp  (str.to_re "\u{0A}")) (re.++ (re.comp  (str.to_re "\u{0A}")) (re.++ (re.comp  (str.to_re "\u{0A}")) (re.++ (re.comp  (str.to_re "\u{0A}")) (re.++ (re.comp  (str.to_re "\u{0A}")) (re.++ (re.comp  (str.to_re "\u{0A}")) (re.++ (re.comp  (str.to_re "\u{0A}")) (re.++ (re.comp  (str.to_re "\u{0A}")) (re.++ (re.comp  (str.to_re "\u{0A}")) (re.++ (re.comp  (str.to_re "\u{0A}")) (re.++ (re.comp  (str.to_re "\u{0A}")) (re.++ (re.comp  (str.to_re "\u{0A}")) (re.++ (re.comp  (str.to_re "\u{0A}")) (re.++ (re.comp  (str.to_re "\u{0A}")) (re.++ (re.comp  (str.to_re "\u{0A}")) (re.++ (re.comp  (str.to_re "\u{0A}")) (re.++ (re.comp  (str.to_re "\u{0A}")) (re.++ (re.comp  (str.to_re "\u{0A}")) (re.++ (re.comp  (str.to_re "\u{0A}")) (re.++ (re.comp  (str.to_re "\u{0A}")) (re.++ (re.comp  (str.to_re "\u{0A}")) (re.++ (re.comp  (str.to_re "\u{0A}")) (re.++ (re.comp  (str.to_re "\u{0A}")) (re.++ (re.comp  (str.to_re "\u{0A}")) (re.++ (re.comp  (str.to_re "\u{0A}")) (re.++ (re.comp  (str.to_re "\u{0A}")) (re.++ (re.comp  (str.to_re "\u{0A}")) (re.++ (re.comp  (str.to_re "\u{0A}")) (re.++ (re.comp  (str.to_re "\u{0A}")) (re.++ (re.comp  (str.to_re "\u{0A}")) (re.++ (re.comp  (str.to_re "\u{0A}")) (re.++ (re.comp  (str.to_re "\u{0A}")) (re.++ (re.comp  (str.to_re "\u{0A}")) (re.++ (re.comp  (str.to_re "\u{0A}")) (re.++ (re.comp  (str.to_re "\u{0A}")) (re.++ (re.comp  (str.to_re "\u{0A}")) (re.++ (re.comp  (str.to_re "\u{0A}")) (re.++ (re.comp  (str.to_re "\u{0A}")) (re.++ (re.comp  (str.to_re "\u{0A}")) (re.++ (re.comp  (str.to_re "\u{0A}")) (re.++ (re.comp  (str.to_re "\u{0A}")) (re.++ (re.comp  (str.to_re "\u{0A}")) (re.++ (re.comp  (str.to_re "\u{0A}")) (re.++ (re.comp  (str.to_re "\u{0A}")) (re.++ (re.comp  (str.to_re "\u{0A}")) (re.++ (re.comp  (str.to_re "\u{0A}")) (re.++ (re.comp  (str.to_re "\u{0A}")) (re.++ (re.comp  (str.to_re "\u{0A}")) (re.++ (re.comp  (str.to_re "\u{0A}")) (re.++ (re.comp  (str.to_re "\u{0A}")) (re.++ (re.comp  (str.to_re "\u{0A}")) (re.++ (re.comp  (str.to_re "\u{0A}")) (re.++ (re.comp  (str.to_re "\u{0A}")) (re.++ (re.comp  (str.to_re "\u{0A}")) (re.++ (re.comp  (str.to_re "\u{0A}")) (re.++ (re.comp  (str.to_re "\u{0A}")) (re.++ (re.comp  (str.to_re "\u{0A}")) (re.++ (re.comp  (str.to_re "\u{0A}")) (re.++ (re.comp  (str.to_re "\u{0A}")) (re.++ (re.comp  (str.to_re "\u{0A}")) (re.++ (re.comp  (str.to_re "\u{0A}")) (re.++ (re.comp  (str.to_re "\u{0A}")) (re.++ (re.comp  (str.to_re "\u{0A}")) (re.++ (re.comp  (str.to_re "\u{0A}")) (re.++ (re.comp  (str.to_re "\u{0A}")) (re.++ (re.comp  (str.to_re "\u{0A}")) (re.++ (re.comp  (str.to_re "\u{0A}")) (re.++ (re.comp  (str.to_re "\u{0A}")) (re.++ (re.comp  (str.to_re "\u{0A}")) (re.++ (re.comp  (str.to_re "\u{0A}")) (re.++ (re.comp  (str.to_re "\u{0A}")) (re.++ (re.comp  (str.to_re "\u{0A}")) (re.++ (re.comp  (str.to_re "\u{0A}")) (re.++ (re.comp  (str.to_re "\u{0A}")) (re.++ (re.comp  (str.to_re "\u{0A}")) (re.++ (re.comp  (str.to_re "\u{0A}")) (re.++ (re.comp  (str.to_re "\u{0A}")) (re.++ (re.comp  (str.to_re "\u{0A}")) (re.++ (re.comp  (str.to_re "\u{0A}")) (re.++ (re.comp  (str.to_re "\u{0A}")) (re.++ (re.comp  (str.to_re "\u{0A}")) (re.++ (re.comp  (str.to_re "\u{0A}")) (re.++ (re.comp  (str.to_re "\u{0A}")) (re.++ (re.comp  (str.to_re "\u{0A}")) (re.++ (re.comp  (str.to_re "\u{0A}")) (re.++ (re.comp  (str.to_re "\u{0A}")) (re.++ (re.comp  (str.to_re "\u{0A}")) (re.++ (re.comp  (str.to_re "\u{0A}")) (re.++ (re.comp  (str.to_re "\u{0A}")) (re.++ (re.comp  (str.to_re "\u{0A}")) (re.++ (re.comp  (str.to_re "\u{0A}")) (re.++ (re.comp  (str.to_re "\u{0A}")) (re.++ (re.comp  (str.to_re "\u{0A}")) (re.++ (re.comp  (str.to_re "\u{0A}")) (re.++ (re.comp  (str.to_re "\u{0A}")) (re.++ (re.comp  (str.to_re "\u{0A}")) (re.++ (re.comp  (str.to_re "\u{0A}")) (re.++ (re.comp  (str.to_re "\u{0A}")) (re.++ (re.comp  (str.to_re "\u{0A}")) (re.++ (re.comp  (str.to_re "\u{0A}")) (re.++ (re.comp  (str.to_re "\u{0A}")) (re.++ (re.comp  (str.to_re "\u{0A}")) (re.++ (re.comp  (str.to_re "\u{0A}")) (re.++ (re.comp  (str.to_re "\u{0A}")) (re.++ (re.comp  (str.to_re "\u{0A}")) (re.++ (re.comp  (str.to_re "\u{0A}")) (re.++ (re.comp  (str.to_re "\u{0A}")) (re.++ (re.comp  (str.to_re "\u{0A}")) (re.++ (re.comp  (str.to_re "\u{0A}")) (re.++ (re.comp  (str.to_re "\u{0A}")) (re.++ (re.comp  (str.to_re "\u{0A}")) (re.++ (re.comp  (str.to_re "\u{0A}")) (re.++ (re.comp  (str.to_re "\u{0A}")) (re.++ (re.comp  (str.to_re "\u{0A}")) (re.++ (re.comp  (str.to_re "\u{0A}")) (re.++ (re.comp  (str.to_re "\u{0A}")) (re.++ (re.comp  (str.to_re "\u{0A}")) (re.++ (re.comp  (str.to_re "\u{0A}")) (re.++ (re.comp  (str.to_re "\u{0A}")) (re.++ (re.comp  (str.to_re "\u{0A}")) (re.++ (re.comp  (str.to_re "\u{0A}")) (re.++ (re.comp  (str.to_re "\u{0A}")) (re.++ (re.comp  (str.to_re "\u{0A}")) (re.++ (re.comp  (str.to_re "\u{0A}")) (re.++ (re.comp  (str.to_re "\u{0A}")) (re.++ (re.comp  (str.to_re "\u{0A}")) (re.++ (re.comp  (str.to_re "\u{0A}")) (re.++ (re.comp  (str.to_re "\u{0A}")) (re.++ (re.comp  (str.to_re "\u{0A}")) (re.++ (re.comp  (str.to_re "\u{0A}")) (re.++ (re.comp  (str.to_re "\u{0A}")) (re.++ (re.comp  (str.to_re "\u{0A}")) (re.++ (re.comp  (str.to_re "\u{0A}")) (re.++ (re.comp  (str.to_re "\u{0A}")) (re.++ (re.comp  (str.to_re "\u{0A}")) (re.++ (re.comp  (str.to_re "\u{0A}")) (re.++ (re.comp  (str.to_re "\u{0A}")) (re.++ (re.comp  (str.to_re "\u{0A}")) (re.++ (re.comp  (str.to_re "\u{0A}")) (re.++ (re.comp  (str.to_re "\u{0A}")) (re.++ (re.comp  (str.to_re "\u{0A}")) (re.++ (re.comp  (str.to_re "\u{0A}")) (re.++ (re.comp  (str.to_re "\u{0A}")) (re.++ (re.comp  (str.to_re "\u{0A}")) (re.++ (re.comp  (str.to_re "\u{0A}")) (re.++ (re.comp  (str.to_re "\u{0A}")) (re.++ (re.comp  (str.to_re "\u{0A}")) (re.++ (re.comp  (str.to_re "\u{0A}")) (re.++ (re.comp  (str.to_re "\u{0A}")) (re.++ (re.comp  (str.to_re "\u{0A}")) (re.++ (re.comp  (str.to_re "\u{0A}")) (re.++ (re.comp  (str.to_re "\u{0A}")) (re.++ (re.comp  (str.to_re "\u{0A}")) (re.++ (re.comp  (str.to_re "\u{0A}")) (re.++ (re.comp  (str.to_re "\u{0A}")) (re.++ (re.comp  (str.to_re "\u{0A}")) (re.++ (re.comp  (str.to_re "\u{0A}")) (re.++ (re.comp  (str.to_re "\u{0A}")) (re.++ (re.comp  (str.to_re "\u{0A}")) (re.++ (re.comp  (str.to_re "\u{0A}")) (re.++ (re.comp  (str.to_re "\u{0A}")) (re.++ (re.comp  (str.to_re "\u{0A}")) (re.++ (re.comp  (str.to_re "\u{0A}")) (re.++ (re.comp  (str.to_re "\u{0A}")) (re.++ (re.comp  (str.to_re "\u{0A}")) (re.++ (re.comp  (str.to_re "\u{0A}")) (re.++ (re.comp  (str.to_re "\u{0A}")) (re.++ (re.comp  (str.to_re "\u{0A}")) (re.++ (re.comp  (str.to_re "\u{0A}")) (re.++ (re.comp  (str.to_re "\u{0A}")) (re.comp  (str.to_re "\u{0A}"))))))))))))))))))))))))))))))))))))))))))))))))))))))))))))))))))))))))))))))))))))))))))))))))))))))))))))))))))))))))))))))))))))))))))))))))))))))))))))))))))))))))))))))))))))))))))))))))))))))))))))))))))))))))))))))))))))))))))))))))))))))))))))))))))) )))
(check-sat)
(get-model)