TCS_Benchmarks/redos_fix/snort3_output_distinct_744_743_0_0.txt
((.|\n|\r)*)([^\n]{256})
((.|\n|\r)*)(\?)([^\n]{256})